units metal
dimension 3
boundary p p p
atom_style atomic
atom_modify map yes

lattice custom 1  a1 1.0 0.0 0.0 a2 0.0 1.0 0.0 a3 0.0 0.0 1.0 &
		 basis 0 0 0 basis 0.5 0.5 0.5
read_data data.in
read_dump min.dump 0 x y z
mass 1 63.55
mass 2 91.22

pair_style eam/fs
pair_coeff * * CuZr_4.eam.fs Cu Zr

timestep        0.002
thermo_style custom step temp pe ke enthalpy
thermo        500
dynamical_matrix all eskm 0.01 file dynmat.dat
